! xTB2 Opt NumFreq

*xyzfile 0 1 init.xyz

%pal
 nprocs 2
end
