! xTB2 NEB-TS NumFreq IRC

*xyzfile -1 1 init.xyz

%neb
 # neb_ts_xyzfile "guess.xyz"
 neb_end_xyzfile "final.xyz"

 nimages 9
end

%pal
 nprocs 2
end
