! xTB2 ScanTS NumFreq IRC

*xyzfile -1 1 init.xyz

%geom
 scan
  B 0 5 = 3.164, 2.08, 11
 end
end

%pal
 nprocs 2
end
