! xTB2 OptTS NumFreq IRC

*xyzfile -1 1 init.xyz

%geom
 ts_mode
  {B 0 5}
 end
end

%pal
 nprocs 2
end
